9
0, 354, 815, 382, 441, 833, 407, 664, 551
354, 0, 549, 479, 450, 951, 324, 756, 254
815, 549, 0, 631, 524, 896, 444, 732, 295
382, 479, 631, 0, 110, 481, 213, 294, 489
441, 450, 524, 110, 0, 503, 137, 307, 408
833, 951, 896, 481, 503, 0, 639, 196, 891
407, 324, 444, 213, 137, 639, 0, 443, 276
664, 756, 732, 294, 307, 196, 443, 0, 699
551, 254, 295, 489, 408, 891, 276, 699, 0
